Welcome to the CBC MILP Solver
Version: Devel (unstable)
Build Date: Feb  6 2022
command line - -import /home/danilo/psp-janniele/J30/j3047/j3047_10.lp -timeM elapsed -seconds 10800 -solve -quit (default strategy 1)
seconds was changed from 1e+08 to 10800
Continuous objective value is 0 - 0.052193 seconds
Cgl0002I 16 variables fixed
Cgl0003I 0 fixed, 0 tightened bounds, 4 strengthened rows, 0 substitutions
Cgl0003I 0 fixed, 0 tightened bounds, 4 strengthened rows, 0 substitutions
Cgl0003I 0 fixed, 0 tightened bounds, 4 strengthened rows, 0 substitutions
Cgl0003I 0 fixed, 0 tightened bounds, 3 strengthened rows, 0 substitutions
Cgl0003I 0 fixed, 0 tightened bounds, 3 strengthened rows, 0 substitutions
Cgl0003I 0 fixed, 0 tightened bounds, 3 strengthened rows, 0 substitutions
Cgl0003I 0 fixed, 0 tightened bounds, 3 strengthened rows, 0 substitutions
Cgl0003I 0 fixed, 0 tightened bounds, 3 strengthened rows, 0 substitutions
Cgl0003I 0 fixed, 0 tightened bounds, 3 strengthened rows, 0 substitutions
Cgl0004I processed model has 267 rows, 804 columns (804 integer (804 of which binary)) and 12178 elements
Coin3009W Conflict graph built in 0.132 seconds, density: 1.570%
Cgl0015I Clique Strengthening extended 0 cliques, 0 were dominated
Cbc0045I No integer variables out of 804 objects (804 integer) have costs
Cbc0045I branch on satisfied N create fake objective Y random cost Y
Cbc0038I Initial state - 48 integers unsatisfied sum - 8.20891
Cbc0038I Pass   1: suminf.    4.46784 (16) obj. 0 iterations 75
Cbc0038I Pass   2: suminf.    3.59739 (18) obj. 0 iterations 50
Cbc0038I Pass   3: suminf.    3.51347 (22) obj. 0 iterations 26
Cbc0038I Pass   4: suminf.    3.10412 (17) obj. 0 iterations 91
Cbc0038I Pass   5: suminf.    2.67985 (17) obj. 0 iterations 19
Cbc0038I Pass   6: suminf.    4.86237 (17) obj. 0 iterations 66
Cbc0038I Pass   7: suminf.    4.18677 (14) obj. 0 iterations 24
Cbc0038I Pass   8: suminf.    3.44532 (12) obj. 0 iterations 64
Cbc0038I Pass   9: suminf.    3.38296 (14) obj. 0 iterations 37
Cbc0038I Pass  10: suminf.    3.21629 (15) obj. 0 iterations 22
Cbc0038I Pass  11: suminf.    4.26623 (15) obj. 0 iterations 96
Cbc0038I Pass  12: suminf.    3.38745 (12) obj. 0 iterations 46
Cbc0038I Pass  13: suminf.    3.38745 (12) obj. 0 iterations 14
Cbc0038I Pass  14: suminf.    2.42992 (9) obj. 0 iterations 77
Cbc0038I Pass  15: suminf.    1.93506 (9) obj. 0 iterations 54
Cbc0038I Pass  16: suminf.    2.48052 (8) obj. 0 iterations 39
Cbc0038I Pass  17: suminf.    7.36550 (22) obj. 0 iterations 121
Cbc0038I Pass  18: suminf.    2.34867 (15) obj. 0 iterations 122
Cbc0038I Pass  19: suminf.    2.34867 (15) obj. 0 iterations 8
Cbc0038I Pass  20: suminf.    3.59879 (15) obj. 0 iterations 70
Cbc0038I Pass  21: suminf.    3.00678 (13) obj. 0 iterations 42
Cbc0038I Pass  22: suminf.    2.68367 (13) obj. 0 iterations 37
Cbc0038I Pass  23: suminf.    3.66449 (26) obj. 0 iterations 97
Cbc0038I Pass  24: suminf.    2.88889 (14) obj. 0 iterations 69
Cbc0038I Pass  25: suminf.    2.29388 (10) obj. 0 iterations 90
Cbc0038I Pass  26: suminf.    2.13909 (18) obj. 0 iterations 48
Cbc0038I Pass  27: suminf.    3.74388 (17) obj. 0 iterations 89
Cbc0038I Pass  28: suminf.    3.17143 (17) obj. 0 iterations 43
Cbc0038I Pass  29: suminf.    3.83379 (25) obj. 0 iterations 94
Cbc0038I Pass  30: suminf.    2.31597 (26) obj. 0 iterations 52
Cbc0038I Pass  31: suminf.    4.90059 (22) obj. 0 iterations 73
Cbc0038I Pass  32: suminf.    3.92333 (26) obj. 0 iterations 48
Cbc0038I Pass  33: suminf.    3.76679 (25) obj. 0 iterations 21
Cbc0038I Pass  34: suminf.    3.65856 (14) obj. 0 iterations 79
Cbc0038I Pass  35: suminf.    1.91089 (9) obj. 0 iterations 24
Cbc0038I Pass  36: suminf.    1.46154 (8) obj. 0 iterations 51
Cbc0038I Pass  37: suminf.    3.30679 (13) obj. 0 iterations 80
Cbc0038I Pass  38: suminf.    2.41667 (13) obj. 0 iterations 18
Cbc0038I Pass  39: suminf.    1.18553 (11) obj. 0 iterations 6
Cbc0038I Pass  40: suminf.    1.73333 (7) obj. 0 iterations 83
Cbc0038I Pass  41: suminf.    0.66667 (2) obj. 0 iterations 31
Cbc0038I Solution found of 0
Cbc0038I Before mini branch and bound, 668 integers at bound fixed and 0 continuous
Cbc0038I Mini branch and bound did not improve solution (2.78 seconds)
Cbc0038I After 2.78 seconds - Feasibility pump exiting with objective of 0 - took 0.75 seconds
Cbc0012I Integer solution of 0 found by feasibility pump after 0 iterations and 0 nodes (2.78 seconds)
Cbc0001I Search completed - best objective 0, took 0 iterations and 0 nodes (2.78 seconds)
Cbc0035I Maximum depth 0, 0 variables fixed on reduced cost
Cuts at root node changed objective from 0 to 0
Probing was tried 0 times and created 0 cuts of which 0 were active after adding rounds of cuts (0 seconds)
Gomory was tried 0 times and created 0 cuts of which 0 were active after adding rounds of cuts (0 seconds)
Knapsack was tried 0 times and created 0 cuts of which 0 were active after adding rounds of cuts (0 seconds)
Clique was tried 0 times and created 0 cuts of which 0 were active after adding rounds of cuts (0 seconds)
OddWheel was tried 0 times and created 0 cuts of which 0 were active after adding rounds of cuts (0 seconds)
MixedIntegerRounding2 was tried 0 times and created 0 cuts of which 0 were active after adding rounds of cuts (0 seconds)
FlowCover was tried 0 times and created 0 cuts of which 0 were active after adding rounds of cuts (0 seconds)
TwoMirCuts was tried 0 times and created 0 cuts of which 0 were active after adding rounds of cuts (0 seconds)
ZeroHalf was tried 0 times and created 0 cuts of which 0 were active after adding rounds of cuts (0 seconds)

Result - Optimal solution found
Objective value:                0
Enumerated nodes:               0
Total iterations:               0
Time (CPU seconds):             2.82001
Time (Wallclock seconds):       2.82018
Total time (CPU seconds):       2.93248   (Wallclock seconds):       2.95539
